data;

param xpos := 

d1 10

c1	-7
c4	10
c8	-4
c11	3
c12	6
c13	-1
c16	-8
c17	4
c21	-3
c23	4
c24	6
c29	-7
c30	-3
c35	8
c36	10
c38	-1
c40	8
c42	0
c44	-9
c47	5
c53	-6
c54	-5
c55	0
c57	-2
c60	9
;


param ypos :=

d1 10

c1	-10
c4	-10
c8	-7
c11	-7
c12	-7
c13	-6
c16	-3
c17	-3
c21	-2
c23	-2
c24	-2
c29	0
c30	0
c35	1
c36	1
c38	3
c40	4
c42	5
c44	7
c47	7
c53	9
c54	9
c55	9
c57	10
c60	10
;